12 38
1 2 1
1 3 0
1 4 1
1 5 1
1 6 0
1 7 1
1 8 0
1 9 0
1 10 0
1 11 0
1 12 0
2 3 0
2 4 0
2 5 0
2 6 1
2 7 0
2 8 1
2 9 0
2 10 0
2 11 1
2 12 0
3 4 0
3 5 1
3 6 1
3 7 1
3 8 1
3 9 1
3 10 0
3 11 1
3 12 1
4 5 1
4 6 1
4 7 1
4 8 0
4 9 0
4 10 1
4 11 0
4 12 1
5 6 1
5 7 1
5 8 1
5 9 1
5 10 1
5 11 1
5 12 0
6 7 0
6 8 1
6 9 1
6 10 1
6 11 0
6 12 1
7 8 0
7 9 1
7 10 1
7 11 1
7 12 0
8 9 0
8 10 1
8 11 1
8 12 0
9 10 1
9 11 0
9 12 0
10 11 1
10 12 1
11 12 1
